data/solutions/recovery/degenerate/intermediate/flexible/degenerate_intermediate_instance21/72.sol
Elapsed time: 100.11
Upper bound: 28350420.0
Planning weighted value: 1.07718798762e+11
C[0]=28350420.0
C[1]=28344258.0
C[2]=28325584.0
C[3]=28280451.0
C[4]=28219638.0
C[5]=28042541.0
C[6]=27991477.0
C[7]=27890509.0
C[8]=27864830.0
C[9]=27688838.0
C[10]=0.0
C[11]=0.0
y[0]=6
y[1]=6
y[2]=1
y[3]=0
y[4]=7
y[5]=3
y[6]=8
y[7]=0
y[8]=4
y[9]=4
y[10]=0
y[11]=3
y[12]=0
y[13]=0
y[14]=7
y[15]=7
y[16]=4
y[17]=0
y[18]=0
y[19]=6
y[20]=4
y[21]=2
y[22]=5
y[23]=0
y[24]=2
y[25]=0
y[26]=6
y[27]=8
y[28]=5
y[29]=6
y[30]=5
y[31]=1
y[32]=0
y[33]=6
y[34]=9
y[35]=4
y[36]=0
y[37]=7
y[38]=3
y[39]=0
y[40]=0
y[41]=4
y[42]=9
y[43]=8
y[44]=9
y[45]=4
y[46]=0
y[47]=1
y[48]=8
y[49]=8
y[50]=9
y[51]=8
y[52]=1
y[53]=5
y[54]=4
y[55]=0
y[56]=2
y[57]=3
y[58]=2
y[59]=8
y[60]=2
y[61]=7
y[62]=0
y[63]=0
y[64]=5
