data/solutions/recovery/degenerate/intermediate/flexible/degenerate_intermediate_instance21/72.log

Log started (V12.6.3.0) Sat Apr 21 13:34:55 2018

New value for default parallel thread count: 1

Problem '/tmp/tmp65EHbF.pyomo.lp' read.
Read time = 0.01 sec. (0.58 ticks)

Problem name         : /tmp/tmp65EHbF.pyomo.lp
Objective sense      : Minimize
Variables            :     794  [Nneg: 1,  Binary: 780,  General Integer: 13]
Objective nonzeros   :       1
Linear constraints   :     157  [Less: 77,  Equal: 80]
  Nonzeros           :   41731
  RHS nonzeros       :     131

Variables            : Min LB: 0.000000         Max UB: 1.000000       
Objective nonzeros   : Min   : 1.000000         Max   : 1.000000       
Linear constraints   :
  Nonzeros           : Min   : 1.000000         Max   : 8298339.       
  RHS nonzeros       : Min   : 1.000000         Max   : 7.000000       
Tried aggregator 2 times.
MIP Presolve eliminated 71 rows and 160 columns.
Aggregator did 3 substitutions.
Reduced MIP has 83 rows, 631 columns, and 1747 nonzeros.
Reduced MIP has 620 binaries, 11 generals, 0 SOSs, and 0 indicators.
Presolve time = 0.01 sec. (7.46 ticks)
Found incumbent of value 1.0665792e+08 after 0.01 sec. (8.58 ticks)
Probing time = 0.00 sec. (1.74 ticks)
Cover probing fixed 0 vars, tightened 21 bounds.
Tried aggregator 2 times.
Aggregator did 10 substitutions.
Reduced MIP has 73 rows, 621 columns, and 1727 nonzeros.
Reduced MIP has 620 binaries, 1 generals, 0 SOSs, and 0 indicators.
Presolve time = 0.00 sec. (1.62 ticks)
Probing time = 0.00 sec. (0.95 ticks)
Cover probing fixed 0 vars, tightened 6 bounds.
Clique table members: 62.
MIP emphasis: balance optimality and feasibility.
MIP search method: dynamic search.
Parallel mode: none, using 1 thread.
Root relaxation solution time = 0.00 sec. (0.69 ticks)

        Nodes                                         Cuts/
   Node  Left     Objective  IInf  Best Integer    Best Bound    ItCnt     Gap

*     0+    0                       1.06658e+08        0.0000           100.00%
      0     0   2.80999e+07    16   1.06658e+08   2.80999e+07       30   73.65%
*     0+    0                       3.52901e+07   2.80999e+07            20.37%
      0     0   2.80999e+07    22   3.52901e+07      Fract: 9       68   20.37%
*     0+    0                       3.26930e+07   2.80999e+07            14.05%
      0     0   2.80999e+07    23   3.26930e+07       Cuts: 4       92   14.05%
*     0+    0                       3.14589e+07   2.80999e+07            10.68%
*     0+    0                       3.07545e+07   2.80999e+07             8.63%
*     0+    0                       3.07094e+07   2.80999e+07             8.50%
      0     2   2.80999e+07    19   3.07094e+07   2.80999e+07       92    8.50%
Elapsed time = 0.04 sec. (39.80 ticks, tree = 0.01 MB, solutions = 5)
*    30+   30                       3.06261e+07   2.80999e+07             8.25%
*   130+  120                       3.04039e+07   2.80999e+07             7.58%
*   130+  113                       2.99629e+07   2.80999e+07             6.22%
*   498+  426                       2.99140e+07   2.80999e+07             6.06%
*   499+  398                       2.92651e+07   2.80999e+07             3.98%
*   499+  391                       2.90834e+07   2.80999e+07             3.38%
*   501+  262                       2.90677e+07   2.80999e+07             3.33%
    501   263   2.80999e+07    22   2.90677e+07   2.80999e+07     3231    3.33%
    502   264   2.80999e+07    19   2.90677e+07   2.80999e+07     3243    3.33%
    503   265   2.80999e+07    18   2.90677e+07   2.80999e+07     3247    3.33%
    504   266   2.80999e+07    22   2.90677e+07   2.80999e+07     3271    3.33%
    505   267   2.80999e+07    17   2.90677e+07   2.80999e+07     3272    3.33%
    506   268   2.80999e+07    18   2.90677e+07   2.80999e+07     3295    3.33%
    507   269   2.80999e+07    18   2.90677e+07   2.80999e+07     3297    3.33%
    508   269   2.80999e+07    21   2.90677e+07   2.80999e+07     3307    3.33%
    509   270   2.80999e+07    18   2.90677e+07   2.80999e+07     3308    3.33%
*   701+  237                       2.90176e+07   2.80999e+07             3.16%
*   801+  242                       2.88847e+07   2.80999e+07             2.72%
*   901+  261                       2.87564e+07   2.80999e+07             2.28%
*  1101+  397                       2.87259e+07   2.80999e+07             2.18%
*  1101+  396                       2.87217e+07   2.80999e+07             2.17%
   1101   398   2.80999e+07    26   2.87217e+07   2.80999e+07     7576    2.17%
Elapsed time = 0.78 sec. (1033.04 ticks, tree = 0.18 MB, solutions = 17)
   1983  1085   2.80999e+07    42   2.87217e+07   2.80999e+07    14362    2.17%
   1984  1086   2.80999e+07    37   2.87217e+07   2.80999e+07    14375    2.17%
   1985  1087   2.80999e+07    34   2.87217e+07   2.80999e+07    14389    2.17%
   1986  1088   2.80999e+07    34   2.87217e+07   2.80999e+07    14408    2.17%
   1987  1089   2.80999e+07    33   2.87217e+07   2.80999e+07    14420    2.17%
   1988  1090   2.80999e+07    35   2.87217e+07   2.80999e+07    14424    2.17%
   1989  1091   2.80999e+07    33   2.87217e+07   2.80999e+07    14435    2.17%
   1990  1092   2.80999e+07    32   2.87217e+07   2.80999e+07    14448    2.17%
   1991  1093   2.80999e+07    33   2.87217e+07   2.80999e+07    14464    2.17%
   1992  1094   2.80999e+07    32   2.87217e+07   2.80999e+07    14477    2.17%
Elapsed time = 1.46 sec. (1994.95 ticks, tree = 0.52 MB, solutions = 17)
   4034  2828   2.81318e+07    25   2.87217e+07   2.80999e+07    32508    2.17%
   4035  2829   2.81345e+07    26   2.87217e+07   2.80999e+07    32509    2.17%
   4036  2830   2.81424e+07    28   2.87217e+07   2.80999e+07    32511    2.17%
   4037  2831   2.81434e+07    28   2.87217e+07   2.80999e+07    32513    2.17%
   4038  2832   2.81434e+07    28   2.87217e+07   2.80999e+07    32514    2.17%
   4039  2833   2.81458e+07    30   2.87217e+07   2.80999e+07    32520    2.17%
   4040  2834   2.81935e+07    25   2.87217e+07   2.80999e+07    32530    2.17%
   4041  2835   2.82144e+07    25   2.87217e+07   2.80999e+07    32533    2.17%
   4042  2836   2.82149e+07    25   2.87217e+07   2.80999e+07    32534    2.17%
   4043  2837   2.82150e+07    24   2.87217e+07   2.80999e+07    32535    2.17%
Elapsed time = 2.05 sec. (2952.17 ticks, tree = 1.34 MB, solutions = 17)
   6736  5232   2.80999e+07    33   2.87217e+07   2.80999e+07    53986    2.17%
   6737  5233   2.80999e+07    25   2.87217e+07   2.80999e+07    54007    2.17%
   6738  5234   2.80999e+07    26   2.87217e+07   2.80999e+07    54011    2.17%
   6739  5235   2.80999e+07    26   2.87217e+07   2.80999e+07    54012    2.17%
   6740  5236   2.80999e+07    21   2.87217e+07   2.80999e+07    54042    2.17%
   6741  5237   2.80999e+07    28   2.87217e+07   2.80999e+07    54060    2.17%
   6742  5238   2.80999e+07    27   2.87217e+07   2.80999e+07    54062    2.17%
   6743  5239   2.80999e+07    22   2.87217e+07   2.80999e+07    54066    2.17%
   6744  5240   2.80999e+07    24   2.87217e+07   2.80999e+07    54074    2.17%
   6745  5241   2.80999e+07    28   2.87217e+07   2.80999e+07    54092    2.17%
Elapsed time = 2.66 sec. (3913.35 ticks, tree = 2.54 MB, solutions = 17)
   8891  7139   2.80999e+07    40   2.87217e+07   2.80999e+07    74880    2.17%
   8892  7140   2.80999e+07    36   2.87217e+07   2.80999e+07    74895    2.17%
   8893  7141   2.80999e+07    48   2.87217e+07   2.80999e+07    74997    2.17%
   8894  7142   2.80999e+07    46   2.87217e+07   2.80999e+07    75000    2.17%
   8895  7143   2.80999e+07    44   2.87217e+07   2.80999e+07    75001    2.17%
   8896  7144   2.80999e+07    43   2.87217e+07   2.80999e+07    75002    2.17%
   8897  7145   2.80999e+07    43   2.87217e+07   2.80999e+07    75012    2.17%
   8898  7146   2.80999e+07    42   2.87217e+07   2.80999e+07    75017    2.17%
   8899  7147   2.80999e+07    41   2.87217e+07   2.80999e+07    75026    2.17%
   8900  7148   2.80999e+07    38   2.87217e+07   2.80999e+07    75038    2.17%
Elapsed time = 3.28 sec. (4888.95 ticks, tree = 3.40 MB, solutions = 17)
* 10461+ 8477                       2.86806e+07   2.80999e+07             2.02%
* 10461+ 8416                       2.86600e+07   2.80999e+07             1.95%
  10461  8418   2.81250e+07    39   2.86600e+07   2.80999e+07    92880    1.95%
  10462  8419   2.80999e+07    28   2.86600e+07   2.80999e+07    92906    1.95%
  10463  8420   2.81003e+07    34   2.86600e+07   2.80999e+07    93059    1.95%
  10464  8421   2.81003e+07    33   2.86600e+07   2.80999e+07    93062    1.95%
  10465  8422   2.81003e+07    34   2.86600e+07   2.80999e+07    93063    1.95%
  10466  8423   2.81003e+07    33   2.86600e+07   2.80999e+07    93064    1.95%
  10467  8424   2.81003e+07    33   2.86600e+07   2.80999e+07    93065    1.95%
  10468  8425   2.81003e+07    34   2.86600e+07   2.80999e+07    93068    1.95%
  10469  8426   2.81003e+07    36   2.86600e+07   2.80999e+07    93072    1.95%
  10470  8427   2.81003e+07    34   2.86600e+07   2.80999e+07    93073    1.95%
Elapsed time = 4.33 sec. (6183.32 ticks, tree = 4.20 MB, solutions = 19)
  12048  9815   2.80999e+07    51   2.86600e+07   2.80999e+07   113568    1.95%
  12049  9816   2.80999e+07    50   2.86600e+07   2.80999e+07   113569    1.95%
  12050  9817   2.80999e+07    48   2.86600e+07   2.80999e+07   113571    1.95%
  12051  9818   2.80999e+07    57   2.86600e+07   2.80999e+07   113693    1.95%
  12052  9819   2.80999e+07    54   2.86600e+07   2.80999e+07   113708    1.95%
  12053  9820   2.80999e+07    60   2.86600e+07   2.80999e+07   113847    1.95%
  12054  9821   2.80999e+07    58   2.86600e+07   2.80999e+07   113851    1.95%
  12055  9822   2.80999e+07    52   2.86600e+07   2.80999e+07   113853    1.95%
  12056  9823   2.80999e+07    48   2.86600e+07   2.80999e+07   113861    1.95%
  12057  9824   2.80999e+07    52   2.86600e+07   2.80999e+07   113986    1.95%
Elapsed time = 4.93 sec. (7157.26 ticks, tree = 4.84 MB, solutions = 19)
  13543 11143   2.85774e+07    18   2.86600e+07   2.80999e+07   134676    1.95%
  13544 11144   2.85774e+07    16   2.86600e+07   2.80999e+07   134677    1.95%
  13545 11145   2.85774e+07    15   2.86600e+07   2.80999e+07   134681    1.95%
  13546 11146   2.85774e+07    13   2.86600e+07   2.80999e+07   134686    1.95%
  13547 11147   2.85774e+07    20   2.86600e+07   2.80999e+07   134746    1.95%
  13548 11148   2.85774e+07    19   2.86600e+07   2.80999e+07   134750    1.95%
  13549 11147        cutoff         2.86600e+07   2.80999e+07   134807    1.95%
  13550 11146        cutoff         2.86600e+07   2.80999e+07   134829    1.95%
  13551 11147   2.80999e+07    51   2.86600e+07   2.80999e+07   134999    1.95%
  13552 11148   2.80999e+07    49   2.86600e+07   2.80999e+07   135004    1.95%
Elapsed time = 5.52 sec. (8131.56 ticks, tree = 5.44 MB, solutions = 19)
  14858 12349   2.80999e+07    50   2.86600e+07   2.80999e+07   156731    1.95%
  14859 12350   2.80999e+07    47   2.86600e+07   2.80999e+07   156732    1.95%
  14860 12351   2.80999e+07    46   2.86600e+07   2.80999e+07   156734    1.95%
  14861 12352   2.80999e+07    39   2.86600e+07   2.80999e+07   156743    1.95%
  14862 12353   2.80999e+07    39   2.86600e+07   2.80999e+07   156783    1.95%
  14863 12354   2.80999e+07    37   2.86600e+07   2.80999e+07   156808    1.95%
  14864 12355   2.80999e+07    33   2.86600e+07   2.80999e+07   156815    1.95%
  14865 12356   2.80999e+07    34   2.86600e+07   2.80999e+07   156826    1.95%
  14866 12357   2.80999e+07    48   2.86600e+07   2.80999e+07   156894    1.95%
  14867 12358   2.80999e+07    41   2.86600e+07   2.80999e+07   156923    1.95%
Elapsed time = 6.09 sec. (9092.93 ticks, tree = 5.99 MB, solutions = 19)
  15932 13325   2.80999e+07    52   2.86600e+07   2.80999e+07   176341    1.95%
  15933 13326   2.80999e+07    50   2.86600e+07   2.80999e+07   176346    1.95%
  15934 13327   2.80999e+07    51   2.86600e+07   2.80999e+07   176398    1.95%
  15935 13328   2.80999e+07    51   2.86600e+07   2.80999e+07   176402    1.95%
  15936 13329   2.80999e+07    51   2.86600e+07   2.80999e+07   176490    1.95%
  15937 13330   2.80999e+07    51   2.86600e+07   2.80999e+07   176498    1.95%
  15938 13331   2.80999e+07    51   2.86600e+07   2.80999e+07   176509    1.95%
  15939 13332   2.80999e+07    50   2.86600e+07   2.80999e+07   176510    1.95%
  15940 13333   2.80999e+07    51   2.86600e+07   2.80999e+07   176521    1.95%
  19725 16683   2.81478e+07    46   2.86600e+07   2.80999e+07   235181    1.95%
Elapsed time = 8.40 sec. (12907.63 ticks, tree = 8.44 MB, solutions = 19)
  23839 20347   2.81080e+07    66   2.86600e+07   2.80999e+07   312756    1.95%
  23840 20348   2.81080e+07    66   2.86600e+07   2.80999e+07   312759    1.95%
  23841 20349   2.81081e+07    66   2.86600e+07   2.80999e+07   312761    1.95%
  23842 20350   2.81082e+07    61   2.86600e+07   2.80999e+07   312762    1.95%
  23843 20351   2.81082e+07    66   2.86600e+07   2.80999e+07   312763    1.95%
  23844 20352   2.81082e+07    66   2.86600e+07   2.80999e+07   312764    1.95%
  23845 20353   2.81082e+07    66   2.86600e+07   2.80999e+07   312765    1.95%
  23846 20354   2.81082e+07    61   2.86600e+07   2.80999e+07   312766    1.95%
  23847 20355   2.81082e+07    65   2.86600e+07   2.80999e+07   312767    1.95%
  23848 20356   2.81082e+07    61   2.86600e+07   2.80999e+07   312768    1.95%
Elapsed time = 10.73 sec. (16725.43 ticks, tree = 10.17 MB, solutions = 19)
* 27091+22735                       2.86047e+07   2.80999e+07             1.76%
  27901 23431   2.81368e+07    58   2.86047e+07   2.80999e+07   388436    1.76%
  27902 23432   2.81408e+07    57   2.86047e+07   2.80999e+07   388438    1.76%
  27903 23433   2.81427e+07    56   2.86047e+07   2.80999e+07   388440    1.76%
  27904 23434   2.81692e+07    54   2.86047e+07   2.80999e+07   388471    1.76%
  27905 23435   2.81940e+07    50   2.86047e+07   2.80999e+07   388493    1.76%
  27906 23436   2.82012e+07    50   2.86047e+07   2.80999e+07   388505    1.76%
  27907 23437   2.82053e+07    44   2.86047e+07   2.80999e+07   388509    1.76%
  27908 23438   2.82254e+07    49   2.86047e+07   2.80999e+07   388523    1.76%
  27909 23439   2.82377e+07    47   2.86047e+07   2.80999e+07   388540    1.76%
  27910 23440   2.82613e+07    48   2.86047e+07   2.80999e+07   388549    1.76%
Elapsed time = 13.19 sec. (20673.37 ticks, tree = 11.60 MB, solutions = 20)
  32010 27012   2.81645e+07    57   2.86047e+07   2.80999e+07   467243    1.76%
  32011 27013   2.81646e+07    55   2.86047e+07   2.80999e+07   467246    1.76%
  32012 27014   2.81661e+07    55   2.86047e+07   2.80999e+07   467248    1.76%
  32013 27015   2.81699e+07    60   2.86047e+07   2.80999e+07   467253    1.76%
  32014 27016   2.81727e+07    64   2.86047e+07   2.80999e+07   467268    1.76%
  32015 27017   2.81752e+07    62   2.86047e+07   2.80999e+07   467275    1.76%
  32016 27018   2.82160e+07    61   2.86047e+07   2.80999e+07   467330    1.76%
  32017 27019   2.82184e+07    60   2.86047e+07   2.80999e+07   467339    1.76%
  32018 27020   2.82189e+07    59   2.86047e+07   2.80999e+07   467344    1.76%
  32019 27021   2.82191e+07    58   2.86047e+07   2.80999e+07   467348    1.76%
Elapsed time = 15.56 sec. (24501.57 ticks, tree = 13.29 MB, solutions = 20)
* 33501+27806                       2.85703e+07   2.80999e+07             1.65%
* 33501+27793                       2.85692e+07   2.80999e+07             1.64%
* 33501+27361                       2.85492e+07   2.80999e+07             1.57%
* 33501+26626                       2.85116e+07   2.80999e+07             1.44%
  35676 28507   2.80999e+07    52   2.85116e+07   2.80999e+07   546402    1.44%
  35677 28508   2.80999e+07    50   2.85116e+07   2.80999e+07   546411    1.44%
  35678 28509   2.80999e+07    51   2.85116e+07   2.80999e+07   546439    1.44%
  35679 28510   2.80999e+07    51   2.85116e+07   2.80999e+07   546448    1.44%
  35680 28511   2.80999e+07    51   2.85116e+07   2.80999e+07   546451    1.44%
  35681 28512   2.80999e+07    61   2.85116e+07   2.80999e+07   546552    1.44%
  35682 28513   2.80999e+07    58   2.85116e+07   2.80999e+07   546554    1.44%
  35683 28514   2.80999e+07    54   2.85116e+07   2.80999e+07   546588    1.44%
  35684 28515   2.80999e+07    61   2.85116e+07   2.80999e+07   546779    1.44%
  35685 28516   2.80999e+07    62   2.85116e+07   2.80999e+07   546786    1.44%
Elapsed time = 17.94 sec. (28331.61 ticks, tree = 13.97 MB, solutions = 24)
  39885 32119   2.81468e+07    59   2.85116e+07   2.80999e+07   624337    1.44%
  39886 32120   2.81479e+07    61   2.85116e+07   2.80999e+07   624342    1.44%
  39887 32121   2.81479e+07    61   2.85116e+07   2.80999e+07   624344    1.44%
  39888 32122   2.81685e+07    57   2.85116e+07   2.80999e+07   624385    1.44%
  39889 32123   2.81687e+07    58   2.85116e+07   2.80999e+07   624394    1.44%
  39890 32124   2.81689e+07    58   2.85116e+07   2.80999e+07   624401    1.44%
  39891 32125   2.81690e+07    63   2.85116e+07   2.80999e+07   624408    1.44%
  39892 32126   2.81695e+07    59   2.85116e+07   2.80999e+07   624418    1.44%
  39893 32127   2.81695e+07    56   2.85116e+07   2.80999e+07   624419    1.44%
  39894 32128   2.81758e+07    56   2.85116e+07   2.80999e+07   624447    1.44%
Elapsed time = 20.34 sec. (32155.57 ticks, tree = 15.67 MB, solutions = 24)
  43983 35732   2.83982e+07    45   2.85116e+07   2.80999e+07   702894    1.44%
  43984 35733   2.83982e+07    44   2.85116e+07   2.80999e+07   702897    1.44%
  43985 35734   2.83982e+07    39   2.85116e+07   2.80999e+07   702952    1.44%
  43986 35733        cutoff         2.85116e+07   2.80999e+07   703011    1.44%
  43987 35734   2.83982e+07    35   2.85116e+07   2.80999e+07   703024    1.44%
  43988 35735   2.83982e+07    38   2.85116e+07   2.80999e+07   703036    1.44%
  43989 35736   2.84120e+07    43   2.85116e+07   2.80999e+07   703169    1.44%
  43990 35735        cutoff         2.85116e+07   2.80999e+07   703179    1.44%
  43991 35736   2.84126e+07    41   2.85116e+07   2.80999e+07   703186    1.44%
  43992 35737   2.84153e+07    41   2.85116e+07   2.80999e+07   703194    1.44%
Elapsed time = 22.77 sec. (35982.38 ticks, tree = 18.29 MB, solutions = 24)
  48118 39277   2.83010e+07    50   2.85116e+07   2.80999e+07   778191    1.44%
  48119 39278   2.83022e+07    49   2.85116e+07   2.80999e+07   778194    1.44%
  48120 39279   2.83025e+07    49   2.85116e+07   2.80999e+07   778201    1.44%
  48121 39280   2.83078e+07    44   2.85116e+07   2.80999e+07   778219    1.44%
  48122 39281   2.83131e+07    49   2.85116e+07   2.80999e+07   778229    1.44%
  48123 39282   2.83150e+07    45   2.85116e+07   2.80999e+07   778235    1.44%
  48124 39283   2.83217e+07    47   2.85116e+07   2.80999e+07   778248    1.44%
  48125 39284   2.83225e+07    46   2.85116e+07   2.80999e+07   778251    1.44%
  48126 39285   2.83229e+07    47   2.85116e+07   2.80999e+07   778256    1.44%
  48127 39286   2.83235e+07    44   2.85116e+07   2.80999e+07   778262    1.44%
Elapsed time = 25.90 sec. (39801.27 ticks, tree = 19.95 MB, solutions = 24)
  51979 42542   2.80999e+07    73   2.85116e+07   2.80999e+07   854836    1.44%
  51980 42543   2.80999e+07    63   2.85116e+07   2.80999e+07   854955    1.44%
  51981 42544   2.80999e+07    62   2.85116e+07   2.80999e+07   854956    1.44%
  51982 42545   2.80999e+07    61   2.85116e+07   2.80999e+07   854957    1.44%
  51983 42546   2.80999e+07    57   2.85116e+07   2.80999e+07   854961    1.44%
  51984 42547   2.80999e+07    56   2.85116e+07   2.80999e+07   854964    1.44%
  51985 42548   2.80999e+07    61   2.85116e+07   2.80999e+07   855116    1.44%
  51986 42549   2.80999e+07    47   2.85116e+07   2.80999e+07   855142    1.44%
  51987 42550   2.80999e+07    49   2.85116e+07   2.80999e+07   855161    1.44%
  51988 42551   2.80999e+07    51   2.85116e+07   2.80999e+07   855176    1.44%
Elapsed time = 29.51 sec. (43638.32 ticks, tree = 21.49 MB, solutions = 24)
  55904 45886   2.81116e+07    58   2.85116e+07   2.80999e+07   930222    1.44%
  55905 45887   2.81117e+07    58   2.85116e+07   2.80999e+07   930223    1.44%
  55906 45888   2.81117e+07    58   2.85116e+07   2.80999e+07   930224    1.44%
  55907 45889   2.81117e+07    58   2.85116e+07   2.80999e+07   930225    1.44%
  55908 45890   2.81117e+07    58   2.85116e+07   2.80999e+07   930226    1.44%
  55909 45891   2.81118e+07    59   2.85116e+07   2.80999e+07   930228    1.44%
  55910 45892   2.81118e+07    59   2.85116e+07   2.80999e+07   930230    1.44%
  55911 45893   2.81119e+07    58   2.85116e+07   2.80999e+07   930233    1.44%
  55912 45892        cutoff         2.85116e+07   2.80999e+07   930257    1.44%
  55913 45893   2.81121e+07    59   2.85116e+07   2.80999e+07   930258    1.44%
Elapsed time = 33.12 sec. (47463.98 ticks, tree = 23.06 MB, solutions = 24)
  59421 48855   2.81088e+07    47   2.85116e+07   2.80999e+07  1007052    1.44%
  59422 48856   2.81090e+07    51   2.85116e+07   2.80999e+07  1007055    1.44%
  59423 48857   2.81093e+07    51   2.85116e+07   2.80999e+07  1007057    1.44%
  59424 48858   2.81093e+07    52   2.85116e+07   2.80999e+07  1007058    1.44%
  59425 48859   2.81094e+07    51   2.85116e+07   2.80999e+07  1007061    1.44%
  59426 48860   2.81095e+07    51   2.85116e+07   2.80999e+07  1007062    1.44%
  59427 48861   2.81125e+07    59   2.85116e+07   2.80999e+07  1007085    1.44%
  59428 48862   2.81148e+07    59   2.85116e+07   2.80999e+07  1007106    1.44%
  59429 48863   2.81149e+07    54   2.85116e+07   2.80999e+07  1007109    1.44%
  59430 48864   2.81150e+07    54   2.85116e+07   2.80999e+07  1007115    1.44%
Elapsed time = 36.72 sec. (51285.76 ticks, tree = 24.44 MB, solutions = 24)
  63546 52280   2.81036e+07    58   2.85116e+07   2.80999e+07  1082881    1.44%
  63547 52281   2.80999e+07    47   2.85116e+07   2.80999e+07  1082889    1.44%
  63548 52282   2.80999e+07    64   2.85116e+07   2.80999e+07  1083099    1.44%
  63549 52283   2.80999e+07    59   2.85116e+07   2.80999e+07  1083286    1.44%
  63550 52284   2.80999e+07    54   2.85116e+07   2.80999e+07  1083304    1.44%
  63551 52285   2.84004e+07    48   2.85116e+07   2.80999e+07  1083498    1.44%
  63552 52284        cutoff         2.85116e+07   2.80999e+07  1083500    1.44%
  63553 52283        cutoff         2.85116e+07   2.80999e+07  1083511    1.44%
  63554 52284   2.81092e+07    46   2.85116e+07   2.80999e+07  1083867    1.44%
  63555 52285   2.81092e+07    48   2.85116e+07   2.80999e+07  1083868    1.44%
Elapsed time = 40.36 sec. (55156.61 ticks, tree = 26.07 MB, solutions = 24)
  67653 55779   2.80999e+07    42   2.85116e+07   2.80999e+07  1158928    1.44%
  67654 55780   2.80999e+07    43   2.85116e+07   2.80999e+07  1158935    1.44%
  67655 55781   2.81056e+07    47   2.85116e+07   2.80999e+07  1158966    1.44%
  67656 55782   2.81057e+07    46   2.85116e+07   2.80999e+07  1158969    1.44%
  67657 55783   2.81057e+07    45   2.85116e+07   2.80999e+07  1158971    1.44%
  67658 55784   2.81063e+07    45   2.85116e+07   2.80999e+07  1158972    1.44%
  67659 55785   2.81079e+07    47   2.85116e+07   2.80999e+07  1158980    1.44%
  67660 55786   2.81081e+07    50   2.85116e+07   2.80999e+07  1158982    1.44%
  67661 55787   2.81084e+07    49   2.85116e+07   2.80999e+07  1158983    1.44%
  67662 55788   2.81111e+07    52   2.85116e+07   2.80999e+07  1158999    1.44%
Elapsed time = 44.11 sec. (58981.32 ticks, tree = 27.73 MB, solutions = 24)
  71795 59360   2.80999e+07    40   2.85116e+07   2.80999e+07  1237491    1.44%
  71796 59361   2.80999e+07    49   2.85116e+07   2.80999e+07  1237611    1.44%
  71797 59362   2.80999e+07    49   2.85116e+07   2.80999e+07  1237618    1.44%
  71798 59363   2.80999e+07    41   2.85116e+07   2.80999e+07  1237637    1.44%
  71799 59364   2.80999e+07    40   2.85116e+07   2.80999e+07  1237640    1.44%
  71800 59365   2.80999e+07    42   2.85116e+07   2.80999e+07  1237661    1.44%
  71801 59366   2.80999e+07    51   2.85116e+07   2.80999e+07  1237790    1.44%
  71802 59367   2.80999e+07    62   2.85116e+07   2.80999e+07  1237979    1.44%
  71803 59368   2.80999e+07    49   2.85116e+07   2.80999e+07  1238019    1.44%
  71804 59369   2.80999e+07    54   2.85116e+07   2.80999e+07  1238096    1.44%
Elapsed time = 47.76 sec. (62821.48 ticks, tree = 29.40 MB, solutions = 24)
  75597 62662   2.82313e+07    48   2.85116e+07   2.80999e+07  1313091    1.44%
  75598 62663   2.82319e+07    48   2.85116e+07   2.80999e+07  1313095    1.44%
  75599 62664   2.82328e+07    47   2.85116e+07   2.80999e+07  1313098    1.44%
  75600 62665   2.82338e+07    43   2.85116e+07   2.80999e+07  1313101    1.44%
  75601 62666   2.82484e+07    49   2.85116e+07   2.80999e+07  1313112    1.44%
  75602 62667   2.82486e+07    53   2.85116e+07   2.80999e+07  1313115    1.44%
  75603 62668   2.82504e+07    51   2.85116e+07   2.80999e+07  1313117    1.44%
  75604 62669   2.82555e+07    44   2.85116e+07   2.80999e+07  1313125    1.44%
  75605 62670   2.82730e+07    42   2.85116e+07   2.80999e+07  1313137    1.44%
  75606 62671   2.82748e+07    43   2.85116e+07   2.80999e+07  1313143    1.44%
Elapsed time = 51.48 sec. (66639.40 ticks, tree = 30.95 MB, solutions = 24)
  79655 66096   2.81331e+07    51   2.85116e+07   2.80999e+07  1389681    1.44%
  79656 66097   2.81347e+07    47   2.85116e+07   2.80999e+07  1389687    1.44%
  79657 66098   2.81417e+07    45   2.85116e+07   2.80999e+07  1389697    1.44%
  79658 66099   2.81600e+07    40   2.85116e+07   2.80999e+07  1389714    1.44%
  79659 66100   2.81621e+07    42   2.85116e+07   2.80999e+07  1389718    1.44%
  79660 66101   2.81651e+07    38   2.85116e+07   2.80999e+07  1389726    1.44%
  79661 66102   2.81781e+07    42   2.85116e+07   2.80999e+07  1389748    1.44%
  79662 66103   2.81782e+07    38   2.85116e+07   2.80999e+07  1389750    1.44%
  79663 66104   2.81800e+07    34   2.85116e+07   2.80999e+07  1389754    1.44%
  79664 66105   2.81821e+07    38   2.85116e+07   2.80999e+07  1389760    1.44%
Elapsed time = 55.13 sec. (70458.14 ticks, tree = 34.47 MB, solutions = 24)
  83595 69471   2.80999e+07    35   2.85116e+07   2.80999e+07  1467283    1.44%
  83596 69472   2.80999e+07    52   2.85116e+07   2.80999e+07  1467378    1.44%
  83597 69473   2.80999e+07    52   2.85116e+07   2.80999e+07  1467380    1.44%
  83598 69474   2.80999e+07    46   2.85116e+07   2.80999e+07  1467403    1.44%
  83599 69475   2.80999e+07    41   2.85116e+07   2.80999e+07  1467411    1.44%
  83600 69476   2.80999e+07    41   2.85116e+07   2.80999e+07  1467431    1.44%
  83601 69477   2.80999e+07    42   2.85116e+07   2.80999e+07  1467466    1.44%
  83602 69478   2.80999e+07    39   2.85116e+07   2.80999e+07  1467491    1.44%
  83603 69479   2.80999e+07    33   2.85116e+07   2.80999e+07  1467513    1.44%
  83604 69480   2.80999e+07    40   2.85116e+07   2.80999e+07  1467542    1.44%
Elapsed time = 58.73 sec. (74284.10 ticks, tree = 36.06 MB, solutions = 24)
  87881 73018   2.84329e+07    25   2.85116e+07   2.80999e+07  1541117    1.44%
  87882 73019   2.84355e+07    23   2.85116e+07   2.80999e+07  1541119    1.44%
  87883 73020   2.84618e+07    19   2.85116e+07   2.80999e+07  1541122    1.44%
  87884 73019        cutoff         2.85116e+07   2.80999e+07  1541124    1.44%
  87885 73018    infeasible         2.85116e+07   2.80999e+07  1541124    1.44%
  87886 73019   2.81516e+07    64   2.85116e+07   2.80999e+07  1541512    1.44%
  87887 73020   2.81532e+07    65   2.85116e+07   2.80999e+07  1541528    1.44%
  87888 73021   2.81564e+07    61   2.85116e+07   2.80999e+07  1541558    1.44%
  87889 73022   2.81567e+07    66   2.85116e+07   2.80999e+07  1541565    1.44%
  87890 73023   2.81568e+07    63   2.85116e+07   2.80999e+07  1541569    1.44%
Elapsed time = 62.75 sec. (78117.10 ticks, tree = 37.72 MB, solutions = 24)
  92047 76496   2.83100e+07    35   2.85116e+07   2.80999e+07  1618412    1.44%
  92048 76496   2.83116e+07    35   2.85116e+07   2.80999e+07  1618413    1.44%
  92049 76497   2.83505e+07    26   2.85116e+07   2.80999e+07  1618427    1.44%
  92050 76497   2.83609e+07    24   2.85116e+07   2.80999e+07  1618430    1.44%
  92051 76498   2.83609e+07    25   2.85116e+07   2.80999e+07  1618431    1.44%
  92052 76499   2.83609e+07    33   2.85116e+07   2.80999e+07  1618433    1.44%
  92053 76500   2.83612e+07    29   2.85116e+07   2.80999e+07  1618435    1.44%
  92054 76501   2.84188e+07    27   2.85116e+07   2.80999e+07  1618436    1.44%
  92055 76501   2.84415e+07    27   2.85116e+07   2.80999e+07  1618444    1.44%
  92056 76500    infeasible         2.85116e+07   2.80999e+07  1618444    1.44%
Elapsed time = 66.50 sec. (81935.62 ticks, tree = 39.36 MB, solutions = 24)
  95725 79567   2.80999e+07    51   2.85116e+07   2.80999e+07  1693645    1.44%
  95726 79568   2.80999e+07    54   2.85116e+07   2.80999e+07  1693691    1.44%
  95727 79569   2.80999e+07    48   2.85116e+07   2.80999e+07  1693718    1.44%
  95728 79570   2.80999e+07    46   2.85116e+07   2.80999e+07  1693723    1.44%
  95729 79571   2.80999e+07    59   2.85116e+07   2.80999e+07  1693818    1.44%
  95730 79572   2.80999e+07    55   2.85116e+07   2.80999e+07  1693819    1.44%
  95731 79573   2.80999e+07    53   2.85116e+07   2.80999e+07  1693820    1.44%
  95732 79574   2.80999e+07    62   2.85116e+07   2.80999e+07  1693952    1.44%
  95733 79575   2.80999e+07    58   2.85116e+07   2.80999e+07  1693961    1.44%
  95734 79576   2.80999e+07    57   2.85116e+07   2.80999e+07  1693971    1.44%
Elapsed time = 70.09 sec. (85763.62 ticks, tree = 40.81 MB, solutions = 24)
 100151 83328   2.81349e+07    51   2.85116e+07   2.80999e+07  1769701    1.44%
 100152 83329   2.81389e+07    49   2.85116e+07   2.80999e+07  1769720    1.44%
 100153 83330   2.81393e+07    50   2.85116e+07   2.80999e+07  1769726    1.44%
 100154 83331   2.81399e+07    47   2.85116e+07   2.80999e+07  1769734    1.44%
 100155 83332   2.81410e+07    54   2.85116e+07   2.80999e+07  1769742    1.44%
 100156 83333   2.81410e+07    50   2.85116e+07   2.80999e+07  1769744    1.44%
 100157 83334   2.81427e+07    54   2.85116e+07   2.80999e+07  1769755    1.44%
 100158 83335   2.81431e+07    52   2.85116e+07   2.80999e+07  1769761    1.44%
 100159 83336   2.81436e+07    52   2.85116e+07   2.80999e+07  1769764    1.44%
 100160 83337   2.81461e+07    48   2.85116e+07   2.80999e+07  1769777    1.44%
Elapsed time = 73.70 sec. (89582.73 ticks, tree = 42.56 MB, solutions = 24)
 104329 86902   2.82288e+07    52   2.85116e+07   2.80999e+07  1844249    1.44%
 104330 86903   2.82308e+07    50   2.85116e+07   2.80999e+07  1844257    1.44%
 104331 86904   2.82309e+07    49   2.85116e+07   2.80999e+07  1844261    1.44%
 104332 86905   2.82310e+07    50   2.85116e+07   2.80999e+07  1844264    1.44%
 104333 86906   2.82382e+07    54   2.85116e+07   2.80999e+07  1844275    1.44%
 104334 86907   2.82385e+07    54   2.85116e+07   2.80999e+07  1844277    1.44%
 104335 86908   2.82479e+07    50   2.85116e+07   2.80999e+07  1844294    1.44%
 104336 86909   2.82544e+07    45   2.85116e+07   2.80999e+07  1844310    1.44%
 104337 86910   2.82546e+07    45   2.85116e+07   2.80999e+07  1844311    1.44%
 104338 86911   2.82553e+07    48   2.85116e+07   2.80999e+07  1844319    1.44%
Elapsed time = 77.25 sec. (93402.58 ticks, tree = 44.23 MB, solutions = 24)
 108603 90465   2.81545e+07    59   2.85116e+07   2.80999e+07  1920240    1.44%
 108604 90466   2.81545e+07    55   2.85116e+07   2.80999e+07  1920242    1.44%
 108605 90467   2.81566e+07    57   2.85116e+07   2.80999e+07  1920249    1.44%
 108606 90468   2.81592e+07    56   2.85116e+07   2.80999e+07  1920264    1.44%
 108607 90469   2.81592e+07    52   2.85116e+07   2.80999e+07  1920266    1.44%
 108608 90470   2.81642e+07    53   2.85116e+07   2.80999e+07  1920280    1.44%
 108609 90471   2.81642e+07    53   2.85116e+07   2.80999e+07  1920282    1.44%
 108610 90472   2.81732e+07    57   2.85116e+07   2.80999e+07  1920321    1.44%
 108611 90473   2.81747e+07    57   2.85116e+07   2.80999e+07  1920328    1.44%
 108612 90474   2.81749e+07    57   2.85116e+07   2.80999e+07  1920336    1.44%
Elapsed time = 80.86 sec. (97223.15 ticks, tree = 45.90 MB, solutions = 24)
 112481 93736   2.81265e+07    47   2.85116e+07   2.80999e+07  1996056    1.44%
 112482 93737   2.81299e+07    50   2.85116e+07   2.80999e+07  1996068    1.44%
 112483 93738   2.81309e+07    56   2.85116e+07   2.80999e+07  1996075    1.44%
 112484 93739   2.81313e+07    54   2.85116e+07   2.80999e+07  1996082    1.44%
 112485 93740   2.81313e+07    54   2.85116e+07   2.80999e+07  1996083    1.44%
 112486 93741   2.81317e+07    52   2.85116e+07   2.80999e+07  1996087    1.44%
 112487 93742   2.81320e+07    54   2.85116e+07   2.80999e+07  1996090    1.44%
 112488 93743   2.81336e+07    53   2.85116e+07   2.80999e+07  1996091    1.44%
 112489 93744   2.81357e+07    52   2.85116e+07   2.80999e+07  1996098    1.44%
 112490 93745   2.81360e+07    51   2.85116e+07   2.80999e+07  1996102    1.44%
Elapsed time = 84.51 sec. (101049.54 ticks, tree = 47.43 MB, solutions = 24)
*115501+95950                       2.85040e+07   2.80999e+07             1.42%
*115601+96038                       2.85040e+07   2.80999e+07             1.42%
 116596 96867   2.82975e+07    46   2.85040e+07   2.80999e+07  2071005    1.42%
 116597 96868   2.82978e+07    45   2.85040e+07   2.80999e+07  2071006    1.42%
 116598 96869   2.83019e+07    49   2.85040e+07   2.80999e+07  2071016    1.42%
 116599 96870   2.83019e+07    49   2.85040e+07   2.80999e+07  2071017    1.42%
 116600 96871   2.83191e+07    46   2.85040e+07   2.80999e+07  2071041    1.42%
 116601 96872   2.83217e+07    47   2.85040e+07   2.80999e+07  2071046    1.42%
 116602 96873   2.83219e+07    47   2.85040e+07   2.80999e+07  2071049    1.42%
 116603 96874   2.83228e+07    43   2.85040e+07   2.80999e+07  2071053    1.42%
 116604 96875   2.83239e+07    44   2.85040e+07   2.80999e+07  2071056    1.42%
 116605 96876   2.83240e+07    42   2.85040e+07   2.80999e+07  2071060    1.42%
Elapsed time = 88.09 sec. (104868.63 ticks, tree = 48.88 MB, solutions = 26)
 120553 100115   2.81475e+07    53   2.85040e+07   2.80999e+07  2139286    1.42%
 120554 100116   2.81477e+07    45   2.85040e+07   2.80999e+07  2139288    1.42%
 120555 100117   2.81480e+07    45   2.85040e+07   2.80999e+07  2139289    1.42%
 120556 100118   2.81480e+07    45   2.85040e+07   2.80999e+07  2139290    1.42%
 120557 100119   2.81481e+07    45   2.85040e+07   2.80999e+07  2139291    1.42%
 120558 100120   2.81506e+07    49   2.85040e+07   2.80999e+07  2139297    1.42%
 120559 100121   2.81525e+07    48   2.85040e+07   2.80999e+07  2139302    1.42%
 120560 100122   2.81533e+07    47   2.85040e+07   2.80999e+07  2139310    1.42%
 120561 100123   2.81561e+07    50   2.85040e+07   2.80999e+07  2139318    1.42%
 120562 100124   2.81585e+07    49   2.85040e+07   2.80999e+07  2139320    1.42%
Elapsed time = 91.72 sec. (108687.59 ticks, tree = 50.41 MB, solutions = 26)
*121501+99109                       2.84733e+07   2.80999e+07             1.31%
*121801+99272                       2.84722e+07   2.80999e+07             1.31%
*121801+97240                       2.84465e+07   2.80999e+07             1.22%
 122201 97588   2.82076e+07    40   2.84465e+07   2.80999e+07  2165701    1.22%
 122202 97589   2.82080e+07    43   2.84465e+07   2.80999e+07  2165714    1.22%
 122203 97590   2.82127e+07    39   2.84465e+07   2.80999e+07  2165724    1.22%
 122204 97591   2.82131e+07    43   2.84465e+07   2.80999e+07  2165729    1.22%
 122205 97592   2.82135e+07    41   2.84465e+07   2.80999e+07  2165734    1.22%
 122206 97593   2.82136e+07    36   2.84465e+07   2.80999e+07  2165736    1.22%
 122207 97594   2.82280e+07    45   2.84465e+07   2.80999e+07  2165759    1.22%
 122208 97595   2.82280e+07    45   2.84465e+07   2.80999e+07  2165760    1.22%
 122209 97596   2.82382e+07    45   2.84465e+07   2.80999e+07  2165774    1.22%
 122210 97597   2.82383e+07    38   2.84465e+07   2.80999e+07  2165775    1.22%
Elapsed time = 95.06 sec. (112515.82 ticks, tree = 49.07 MB, solutions = 29)
*122601+97822                       2.84454e+07   2.80999e+07             1.21%
*122701+85470                       2.83504e+07   2.80999e+07             0.88%
 123901 86464   2.81617e+07    50   2.83504e+07   2.80999e+07  2201573    0.88%
 123902 86465   2.81647e+07    43   2.83504e+07   2.80999e+07  2201579    0.88%
 123903 86466   2.81731e+07    37   2.83504e+07   2.80999e+07  2201585    0.88%
 123904 86467   2.81739e+07    38   2.83504e+07   2.80999e+07  2201588    0.88%
 123905 86468   2.81823e+07    37   2.83504e+07   2.80999e+07  2201591    0.88%
 123906 86469   2.81972e+07    32   2.83504e+07   2.80999e+07  2201597    0.88%
 123907 86470   2.82062e+07    31   2.83504e+07   2.80999e+07  2201606    0.88%
 123908 86471   2.82063e+07    31   2.83504e+07   2.80999e+07  2201607    0.88%
 123909 86471   2.82581e+07    30   2.83504e+07   2.80999e+07  2201659    0.88%
 123910 86472   2.82763e+07    25   2.83504e+07   2.80999e+07  2201671    0.88%
Elapsed time = 98.35 sec. (116366.57 ticks, tree = 43.63 MB, solutions = 31)

Cover cuts applied:  333
Mixed integer rounding cuts applied:  22
Gomory fractional cuts applied:  12

Root node processing (before b&c):
  Real time             =    0.04 sec. (39.93 ticks)
Sequential b&c:
  Real time             =   99.96 sec. (118077.62 ticks)
                          ------------
Total (root+branch&cut) =  100.00 sec. (118117.55 ticks)

Solution pool: 31 solutions saved.

MIP - Time limit exceeded, integer feasible:  Objective =  2.8350420000e+07
Current MIP best bound =  2.8099855000e+07 (gap = 250565, 0.88%)
Solution time =  100.00 sec.  Iterations = 2232501  Nodes = 125156 (87501)
Deterministic time = 118117.55 ticks  (1181.17 ticks/sec)


Incumbent solution written to file '/tmp/tmpgomxwg.cplex.sol'.
